coords = array2d(1..76, 1..2, [402, 427, 402, 738, 899, 371, 192, 60, 609, 348,
    450, 600, 445, 1000, 618, 462, 122, 405, 771, 479, 131, 293, 566,
    293, 423, 642, 558, 489, 680, 707, 180, 250, 328, 669, 361, 111,
    464, 961, 510, 264, 996, 767, 265, 92, 170, 773, 983, 485, 925,
    980, 375, 281, 383, 973, 342, 572, 65, 627, 584, 865, 848, 901,
    313, 160, 348, 833, 26, 156, 959, 538, 640, 500, 667, 312, 150,
    436, 555, 264, 348, 586, 583, 745, 123, 702, 165, 453, 11, 28,
    700, 940, 194, 286, 466, 978, 110, 512, 47, 676, 372, 975, 369,
    418, 41, 202, 197, 405, 236, 889, 617, 853, 954, 67, 789, 752,
    471, 764, 375, 854, 209, 487, 863, 74, 499, 429, 504, 742, 649,
    431, 849, 437, 788, 532, 613, 238, 716, 352, 18, 886, 605, 765,
    181, 700, 24, 625, 639, 948, 325, 245, 354, 67, 726, 382]);

n = 76;

